Traveling Salesman Problem/TSP_generados/Aleatorio1620391192_15.tsp
NAME: Aleatorio1620391192_15.tsp
COMMENT: Randomly generated scenario
TYPE: TSP
DIMENSION: 15
EDGE_WEIGHT_TYPE: ATT
NODE_COORD_SECTION
1 22.42 26.32
2 20.04 2.28
3 28.31 21.71
4 8.21 37.2
5 41.86 28.47
6 15.18 38.93
7 37.57 44.39
8 0.65 37.69
9 31.75 32.14
10 24.34 15.91
11 48.05 4.96
12 20.33 18.12
13 1.17 47.72
14 32.11 16.12
15 16.74 1.86
