Traveling Salesman Problem/TSP_generados/Aleatorio1620391192_15.opt.tour
NAME: Aleatorio1620391192_15.opt.tour
COMMENT: Optimal solution for Aleatorio1620391192_15 (198.43704275806192)
TYPE: TOUR
DIMENSION: 15
TOUR_SECTION
1 3 14 10 12 15 2 11 5 9 7 6 13 8 4
-1
EOF
